sat
(
(define-fun S () String "bbbabbbaa")
(define-fun J () String "")
(define-fun T () String "")
(define-fun H () String "bbb")
(define-fun R () String "")
(define-fun I () String "")
(define-fun L () String "")
(define-fun N () String "")
(define-fun M () String "")
(define-fun P () String "")
)
